% Data file generated from RandomInstances/10_0.95_2.col DIMACS file
size = 10;

chi = 8;

adjacency = [|0,1,1,1,1,0,1,1,1,1,
|1,0,1,1,1,1,1,1,1,1,
|1,1,0,0,1,1,1,1,1,1,
|1,1,0,0,1,1,1,1,1,1,
|1,1,1,1,0,1,1,1,1,1,
|0,1,1,1,1,0,1,1,1,1,
|1,1,1,1,1,1,0,1,1,1,
|1,1,1,1,1,1,1,0,1,1,
|1,1,1,1,1,1,1,1,0,1,
|1,1,1,1,1,1,1,1,1,0,
|];